0000000000000000
0000000000000000
0000000000000000
0011111111111110
0000000000000110
0000000000000110
0000000000000110
0011000000000110
0011000000000110
0011000000000110
0011000000000110
0000000000000000
0000000000000000
0000000000000000
0000000000000000
0000000000000000